10
2 10 10 4 6 1 3 6 2 8
1 8 4 1 6 4 9 2 10 1
1 4 -1 -1 -4 2 -3 -2 -2 2
-5 -3 1 0 2 -4 -5 0 2 -5
0 3 5 -1 -1 -1 -5 -1 3 -4
5 -3 -4 -5 -3 1 4 4 -5 -3
-4 -4 4 -3 5 1 -1 3 -4 -4
3 5 4 -5 -3 4 5 -3 -1 -4
5 -5 -1 -1 -5 1 -3 4 -3 1
3 3 0 -4 -5 0 -2 4 -5 2
3 5 -3 3 -1 -3 0 5 4 3
3 -2 2 0 3 -2 0 1 -5 -5
